(declare-const c Real)
(declare-const a Real)
(declare-const b Real)
(assert (= (* (* a b) c) 1))
(assert (and (< 0 a) (and (< 0 b) (< 0 c))))
(assert (not (<= (* (* (+ (+ a (- 1)) (/ 1 b)) (+ (+ b (- 1)) (/ 1 c))) (+ (+ c (- 1)) (/ 1 a))) 1)))
(check-sat)
(get-model)
(exit)